12
shortest_path: 217
-1 81 17 99 43 78 95 55 92 88 39 10
81 -1 44 80 40 83 48 3 57 67 3 57
17 44 -1 80 8 56 65 81 10 57 63 68
99 80 80 -1 94 86 50 99 15 21 34 64
43 40 8 94 -1 90 88 56 80 12 38 30
78 83 56 86 90 -1 29 64 55 39 11 70
95 48 65 50 88 29 -1 68 28 73 52 85
55 3 81 99 56 64 68 -1 21 70 48 64
92 57 10 15 80 55 28 21 -1 48 100 53
88 67 57 21 12 39 73 70 48 -1 11 21
39 3 63 34 38 11 52 48 100 11 -1 27
10 57 68 64 30 70 85 64 53 21 27 -1